JulietBench/Juliet_Based_Patch_Bench/linux/CWE-189-Numeric-Errors/CVE_2010_4529_fdac1e0697356ac212259f2147aa60c72e334861/Resultirda_getsockopt_Snippet_patch1EQ.smt2
; benchmark generated from python API
(set-info :status unknown)
(declare-fun R () (_ BitVec 32))
(declare-fun rdi () (_ BitVec 64))
(assert
 (let (($x54 (= (_ bv4294967274 32) R)))
 (let ((?x6 ((_ extract 31 0) rdi)))
 (let (($x11 (bvsgt (_ bv2 32) ?x6)))
 (let (($x55 (and $x11 $x54)))
 (let (($x51 (= (_ bv2 32) R)))
 (let (($x30 (bvsle (_ bv2 32) ?x6)))
 (let (($x52 (and $x30 $x51)))
 (let (($x56 (or $x52 $x55)))
 (and $x51 $x56))))))))))
(check-sat)
